benchmarks/2018.NIA-sorin/_source/sorin04/sorin04.desugared.sol
i*(i+1) == 2*a && c == i*i*i
